NAME : 20220725DredgerMap_Gaussain_1_kernal10linear.gtsp.410.tour
COMMENT : Length = 410
COMMENT : Found by GLKH [Keld Helsgaun] Fri Aug 12 04:03:07 2022
TYPE : TOUR
DIMENSION : 9
TOUR_SECTION
1
17
6
11
4
9
14
7
16
-1
EOF
